n_res = 4;
rc = [ 11, 17, 16, 15 ];
n_tasks = 30;
d = [ 4, 4, 8, 2, 7, 4, 1, 9, 8, 5, 10, 10, 10, 4, 3, 2, 4, 7, 5, 7, 6, 5, 10, 1, 2, 1, 1, 10, 8, 3 ];
rr = [| 8, 5, 5, 0, 3, 0, 3, 4, 0, 1, 4, 1, 7, 0, 5, 0, 2, 8, 3, 7, 0, 5, 6, 5, 0, 1, 5, 0, 0, 4
      | 4, 3, 0, 1, 0, 8, 3, 7, 6, 7, 5, 7, 1, 1, 0, 9, 0, 1, 5, 2, 9, 10, 8, 3, 5, 10, 4, 7, 0, 1
      | 9, 6, 0, 4, 9, 1, 5, 1, 0, 2, 10, 0, 0, 4, 7, 8, 10, 1, 0, 5, 5, 0, 3, 4, 0, 8, 6, 0, 9, 0
      | 5, 2, 9, 0, 0, 6, 3, 4, 6, 8, 3, 8, 0, 3, 5, 7, 9, 10, 1, 1, 0, 1, 6, 0, 3, 10, 8, 1, 1, 0 |];
suc = [ { 4, 8, 23 },
       { 7, 13, 22 },
       { 6, 14 },
       { 5, 10 },
       { 16, 18 },
       { 9 },
       { 28 },
       { 10, 12, 19 },
       { 17, 26 },
       { 11, 20, 21 },
       { 24 },
       { 15 },
       { 19 },
       { 22 },
       { 18 },
       { 20, 22 },
       { 25 },
       { 29 },
       { 29 },
       { 27 },
       { 24 },
       { 25, 26 },
       { 29 },
       { 25 },
       { 30 },
       { 27, 30 },
       { 28 },
       {  },
       {  },
       {  } ];
